c SAT Generator for power-law distributed variable frequencies
c -g u -v 20 -c 91 -k 3 -p 2.750000 -b 3.200000 -f /home/schmidt/Devel/ni-kop-sat/data/ensemble/ruf20-91/ruf20-91-545 -u 1 -U 1 -s 2004745537
p cnf 20 91
-13 15 16 0
1 -4 13 0
1 -4 -20 0
1 5 -20 0
-13 14 18 0
-2 7 -8 0
-4 7 -19 0
5 -16 -18 0
-7 11 18 0
2 -9 17 0
-1 -5 6 0
4 13 15 0
13 -19 20 0
-11 -12 -17 0
11 -17 -19 0
7 -11 16 0
-8 -17 19 0
7 8 18 0
-2 -10 -16 0
-7 13 -16 0
-1 -16 -18 0
-3 -9 -18 0
-8 12 -17 0
1 -4 -9 0
5 -11 18 0
-7 11 17 0
1 -10 -17 0
-6 -9 -10 0
8 16 18 0
11 -15 20 0
2 8 15 0
-5 11 15 0
1 -10 11 0
-7 16 -18 0
-6 10 -18 0
-3 -11 -19 0
8 -18 -19 0
-12 -16 -20 0
-10 -12 14 0
9 -12 -20 0
4 5 -18 0
2 10 12 0
-7 -9 11 0
-10 -12 -19 0
-2 -13 16 0
5 -6 10 0
-2 11 -12 0
-2 18 20 0
-1 19 -20 0
-1 -3 -11 0
1 4 -13 0
-5 -8 13 0
-8 11 -18 0
-5 8 12 0
-11 14 -15 0
-5 8 16 0
-1 12 -16 0
-5 -10 -17 0
11 -17 18 0
-6 -8 14 0
-2 13 -19 0
3 14 15 0
-3 9 17 0
-1 14 15 0
-4 -10 16 0
5 7 -18 0
16 -17 -19 0
-2 -4 9 0
-5 -10 -18 0
8 -12 -18 0
9 -17 -20 0
-1 -4 -15 0
-2 8 20 0
-1 -6 20 0
14 -15 -17 0
-1 17 20 0
6 -16 20 0
-11 -12 15 0
14 16 -19 0
-10 11 16 0
-3 -10 -13 0
2 11 -17 0
-6 -10 -20 0
3 4 14 0
1 3 16 0
-5 7 15 0
8 -9 -11 0
-3 -6 9 0
6 18 19 0
3 8 13 0
-12 -15 -17 0
